0 52 43 30 48 0 
0 49 1 41 9 2 14 53 40 0 
0 59 10 19 42 3 39 45 5 18 0 
0 25 15 56 17 0 
0 20 13 26 4 38 36 0 
0 28 57 32 34 11 47 44 51 50 62 0 
0 21 61 60 37 16 54 0 
0 7 23 46 31 0 
0 29 8 35 27 6 12 0 
0 24 33 55 22 58 0 
